60 100
1 3 3
4 4 1
9 6 2
9 9 1
8 5 1
7 10 1
7 1 2
4 3 1
6 9 4
9 5 1
5 4 4
5 2 2
6 4 2
5 1 1
2 8 1
5 10 2
6 6 1
10 8 2
6 1 3
7 6 1
8 3 3
8 8 1
9 1 1
10 1 3
1 2 6
6 10 3
3 9 1
4 9 1
6 3 2
10 2 2
2 9 2
7 3 1
4 7 2
8 1 2
9 8 1
10 5 1
7 7 1
3 5 3
1 6 1
5 6 2
8 4 1
5 8 2
1 8 1
4 2 2
4 6 1
1 4 1
5 5 2
2 1 2
3 3 2
8 10 1
10 7 1
3 8 1
1 9 1
6 5 1
2 10 1
5 7 1
5 3 1
10 3 1
8 7 1
2 5 1
30 30 
30 30 
30 30 
30 30 
30 30 
30 30 
30 30 
30 30 
30 30 
30 30 
30 30 
30 30 
30 30 
30 30 
30 30 
30 30 
30 30 
30 30 
30 30 
30 30 
30 30 
30 30 
30 30 
30 30 
30 30 
30 30 
30 30 
30 30 
30 30 
30 30 
30 30 
30 30 
30 30 
30 30 
30 30 
30 30 
30 30 
30 30 
30 30 
30 30 
30 30 
30 30 
30 30 
30 30 
30 30 
30 30 
30 30 
30 30 
30 30 
30 30 
30 30 
30 30 
30 30 
30 30 
30 30 
30 30 
30 30 
30 30 
30 30 
30 30 
30 30 
30 30 
30 30 
30 30 
30 30 
30 30 
30 30 
30 30 
30 30 
30 30 
30 30 
30 30 
30 30 
30 30 
30 30 
30 30 
30 30 
30 30 
30 30 
30 30 
30 30 
30 30 
30 30 
30 30 
30 30 
30 30 
30 30 
30 30 
30 30 
30 30 
30 30 
30 30 
30 30 
30 30 
30 30 
30 30 
30 30 
30 30 
30 30 
30 30 
